(set-info :smt-lib-version 2.6)
(set-logic QF_NIA)
(set-info :source |
Generated by: Cristina Borralleras, Daniel Larraz, Albert Oliveras, Enric Rodriguez-Carbonell, Albert Rubio
Generated on: 2017-04-27
Generator: VeryMax
Application: Termination proving
Target solver: barcelogic
|)
(set-info :license "https://creativecommons.org/licenses/by/4.0/")
(set-info :category "industrial")
(set-info :status unsat)
(declare-fun Nl2__disjvr_1^01 () Int)
(declare-fun Nl2__disjvr_2^01 () Int)
(declare-fun Nl2x_5^01 () Int)
(declare-fun Nl2y_6^01 () Int)
(declare-fun lam0n2 () Int)
(declare-fun lam0n3 () Int)
(declare-fun UndefCntr0_CT () Int)
(declare-fun Nl2CT1 () Int)
(declare-fun UndefCntr0___disjvr_1^0 () Int)
(declare-fun UndefCntr0___disjvr_2^0 () Int)
(declare-fun lam0n0 () Int)
(declare-fun UndefCntr0_x_5^0 () Int)
(declare-fun UndefCntr0_y_6^0 () Int)
(declare-fun lam0n1 () Int)
(declare-fun UndefCntr0_undef33 () Int)
(declare-fun lam1n2 () Int)
(declare-fun lam1n3 () Int)
(declare-fun lam1n0 () Int)
(declare-fun lam1n1 () Int)
(declare-fun lam2n2 () Int)
(declare-fun lam2n3 () Int)
(declare-fun UndefCntr1_CT () Int)
(declare-fun lam2n0 () Int)
(declare-fun UndefCntr1___disjvr_1^0 () Int)
(declare-fun UndefCntr1___disjvr_2^0 () Int)
(declare-fun lam2n1 () Int)
(declare-fun UndefCntr1_x_5^0 () Int)
(declare-fun UndefCntr1_y_6^0 () Int)
(declare-fun UndefCntr1_undef52 () Int)
(declare-fun lam3n2 () Int)
(declare-fun lam3n3 () Int)
(declare-fun lam3n0 () Int)
(declare-fun lam3n1 () Int)
(declare-fun lam4n0 () Int)
(declare-fun lam4n2 () Int)
(declare-fun lam4n3 () Int)
(declare-fun UndefCntr2_CT () Int)
(declare-fun UndefCntr2___disjvr_1^0 () Int)
(declare-fun UndefCntr2___disjvr_2^0 () Int)
(declare-fun UndefCntr2_x_5^0 () Int)
(declare-fun UndefCntr2_y_6^0 () Int)
(declare-fun lam4n1 () Int)
(declare-fun UndefCntr2_undef75 () Int)
(declare-fun lam5n0 () Int)
(declare-fun lam5n2 () Int)
(declare-fun lam5n3 () Int)
(declare-fun lam5n1 () Int)
(declare-fun lam6n0 () Int)
(declare-fun lam6n2 () Int)
(declare-fun lam6n3 () Int)
(declare-fun UndefCntr3_CT () Int)
(declare-fun UndefCntr3___disjvr_1^0 () Int)
(declare-fun lam6n1 () Int)
(declare-fun UndefCntr3___disjvr_2^0 () Int)
(declare-fun UndefCntr3_x_5^0 () Int)
(declare-fun UndefCntr3_y_6^0 () Int)
(declare-fun UndefCntr3_undef95 () Int)
(declare-fun lam7n0 () Int)
(declare-fun lam7n2 () Int)
(declare-fun lam7n3 () Int)
(declare-fun lam7n1 () Int)
(declare-fun __disjvr_1^0 () Int)
(declare-fun __disjvr_2^0 () Int)
(declare-fun x_5^0 () Int)
(declare-fun y_6^0 () Int)
(declare-fun FV___disjvr_1^0_4 () Int)
(declare-fun FV___disjvr_2^0_4 () Int)
(declare-fun FV_x_5^0_4 () Int)
(declare-fun FV_y_6^0_4 () Int)
(declare-fun lam9n1 () Int)
(declare-fun lam9n0 () Int)
(declare-fun lam10n1 () Int)
(declare-fun UndefDef1undef52_CT () Int)
(declare-fun UndefDef1undef52___disjvr_1^0 () Int)
(declare-fun UndefDef1undef52___disjvr_2^0 () Int)
(declare-fun lam10n0 () Int)
(declare-fun UndefDef1undef52_x_5^0 () Int)
(declare-fun UndefDef1undef52_y_6^0 () Int)
(declare-fun lam11n1 () Int)
(declare-fun lam11n0 () Int)
(declare-fun lam12n1 () Int)
(declare-fun lam12n0 () Int)
(declare-fun lam13n0 () Int)
(declare-fun lam13n1 () Int)
(declare-fun lam14n0 () Int)
(declare-fun lam14n1 () Int)
(declare-fun UndefDef3undef95_CT () Int)
(declare-fun UndefDef3undef95___disjvr_1^0 () Int)
(declare-fun UndefDef3undef95___disjvr_2^0 () Int)
(declare-fun UndefDef3undef95_x_5^0 () Int)
(declare-fun UndefDef3undef95_y_6^0 () Int)
(declare-fun lam15n0 () Int)
(declare-fun lam15n1 () Int)
(declare-fun lam16n0 () Int)
(declare-fun lam16n1 () Int)
(declare-fun FV_undef33_0 () Int)
(declare-fun FV___disjvr_1^0_0 () Int)
(declare-fun FV___disjvr_2^0_0 () Int)
(declare-fun FV_x_5^0_0 () Int)
(declare-fun FV_y_6^0_0 () Int)
(declare-fun FV_undef75_2 () Int)
(declare-fun FV___disjvr_1^0_2 () Int)
(declare-fun FV___disjvr_2^0_2 () Int)
(declare-fun FV_x_5^0_2 () Int)
(declare-fun FV_y_6^0_2 () Int)
(declare-fun lam17n0 () Int)
(declare-fun lam17n1 () Int)
(declare-fun FV_x_5^0_5 () Int)
(declare-fun FV_y_6^0_5 () Int)
(declare-fun FV___disjvr_1^0_5 () Int)
(declare-fun FV___disjvr_2^0_5 () Int)
(declare-fun FV_undef33_5 () Int)
(declare-fun FV_undef52_5 () Int)
(declare-fun FV_undef75_5 () Int)
(declare-fun FV_undef95_5 () Int)
(assert ( and ( <= ( - 1 ) Nl2__disjvr_1^01 ) ( <= Nl2__disjvr_1^01 1 ) ( <= ( - 1 ) Nl2__disjvr_2^01 ) ( <= Nl2__disjvr_2^01 1 ) ( <= ( - 1 ) Nl2x_5^01 ) ( <= Nl2x_5^01 1 ) ( <= ( - 1 ) Nl2y_6^01 ) ( <= Nl2y_6^01 1 ) ))
(assert ( or ( and ( >= lam0n2 0 ) ( >= lam0n3 0 ) ( > ( + ( * UndefCntr0_CT lam0n2 ) ( * Nl2CT1 lam0n3 ) ( - 1 ) ) 0 ) ( = ( + ( * UndefCntr0___disjvr_1^0 lam0n2 ) ( * Nl2__disjvr_1^01 lam0n3 ) ) 0 ) ( = ( + ( * UndefCntr0___disjvr_2^0 lam0n2 ) ( * Nl2__disjvr_2^01 lam0n3 ) ) 0 ) ( = ( + ( * 1 lam0n0 ) ( * UndefCntr0_x_5^0 lam0n2 ) ( * Nl2x_5^01 lam0n3 ) ) 0 ) ( = ( + ( * ( - 1 ) lam0n0 ) ( * UndefCntr0_y_6^0 lam0n2 ) ( * Nl2y_6^01 lam0n3 ) ) 0 ) ( = ( + ( * 1 lam0n1 ) ( * UndefCntr0_undef33 lam0n2 ) ) 0 ) ) ( and ( >= lam1n2 0 ) ( >= lam1n3 0 ) ( > ( + ( * UndefCntr0_CT lam1n2 ) ( * Nl2CT1 lam1n3 ) ( - 1 Nl2CT1 ) ) 0 ) ( = ( + ( * UndefCntr0___disjvr_1^0 lam1n2 ) ( * Nl2__disjvr_1^01 lam1n3 ) ( - ( + 0 Nl2__disjvr_1^01 ) ) ) 0 ) ( = ( + ( * UndefCntr0___disjvr_2^0 lam1n2 ) ( * Nl2__disjvr_2^01 lam1n3 ) ( - ( + 0 Nl2__disjvr_2^01 ) ) ) 0 ) ( = ( + ( * 1 lam1n0 ) ( * UndefCntr0_x_5^0 lam1n2 ) ( * Nl2x_5^01 lam1n3 ) ( - ( + 0 Nl2x_5^01 ) ) ) 0 ) ( = ( + ( * ( - 1 ) lam1n0 ) ( * UndefCntr0_y_6^0 lam1n2 ) ( * Nl2y_6^01 lam1n3 ) ( - ( + 0 Nl2y_6^01 ) ) ) 0 ) ( = ( + ( * 1 lam1n1 ) ( * UndefCntr0_undef33 lam1n2 ) ) 0 ) ) ))
(assert ( or ( and ( >= lam2n2 0 ) ( >= lam2n3 0 ) ( > ( + ( * UndefCntr1_CT lam2n2 ) ( * Nl2CT1 lam2n3 ) ( - 1 ) ) 0 ) ( = ( + ( * 1 lam2n0 ) ( * UndefCntr1___disjvr_1^0 lam2n2 ) ( * Nl2__disjvr_1^01 lam2n3 ) ) 0 ) ( = ( + ( * UndefCntr1___disjvr_2^0 lam2n2 ) ( * Nl2__disjvr_2^01 lam2n3 ) ) 0 ) ( = ( + ( * 1 lam2n1 ) ( * UndefCntr1_x_5^0 lam2n2 ) ( * Nl2x_5^01 lam2n3 ) ) 0 ) ( = ( + ( * ( - 1 ) lam2n1 ) ( * UndefCntr1_y_6^0 lam2n2 ) ( * Nl2y_6^01 lam2n3 ) ) 0 ) ( = ( + ( * ( - 1 ) lam2n0 ) ( * UndefCntr1_undef52 lam2n2 ) ) 0 ) ) ( and ( >= lam3n2 0 ) ( >= lam3n3 0 ) ( > ( + ( * UndefCntr1_CT lam3n2 ) ( * Nl2CT1 lam3n3 ) ( - 1 ( + ( + Nl2CT1 ( * Nl2__disjvr_1^01 0 ) ) ( * Nl2x_5^01 1 ) ) ) ) 0 ) ( = ( + ( * 1 lam3n0 ) ( * UndefCntr1___disjvr_1^0 lam3n2 ) ( * Nl2__disjvr_1^01 lam3n3 ) ) 0 ) ( = ( + ( * UndefCntr1___disjvr_2^0 lam3n2 ) ( * Nl2__disjvr_2^01 lam3n3 ) ( - ( + 0 Nl2__disjvr_2^01 ) ) ) 0 ) ( = ( + ( * 1 lam3n1 ) ( * UndefCntr1_x_5^0 lam3n2 ) ( * Nl2x_5^01 lam3n3 ) ( - ( + 0 ( * Nl2x_5^01 1 ) ) ) ) 0 ) ( = ( + ( * ( - 1 ) lam3n1 ) ( * UndefCntr1_y_6^0 lam3n2 ) ( * Nl2y_6^01 lam3n3 ) ( - ( + 0 Nl2y_6^01 ) ) ) 0 ) ( = ( + ( * ( - 1 ) lam3n0 ) ( * UndefCntr1_undef52 lam3n2 ) ( - ( + 0 ( * Nl2__disjvr_1^01 1 ) ) ) ) 0 ) ) ))
(assert ( or ( and ( >= lam4n0 0 ) ( >= lam4n2 0 ) ( >= lam4n3 0 ) ( > ( + ( * 1 lam4n0 ) ( * UndefCntr2_CT lam4n2 ) ( * Nl2CT1 lam4n3 ) ( - 1 ) ) 0 ) ( = ( + ( * UndefCntr2___disjvr_1^0 lam4n2 ) ( * Nl2__disjvr_1^01 lam4n3 ) ) 0 ) ( = ( + ( * UndefCntr2___disjvr_2^0 lam4n2 ) ( * Nl2__disjvr_2^01 lam4n3 ) ) 0 ) ( = ( + ( * 1 lam4n0 ) ( * UndefCntr2_x_5^0 lam4n2 ) ( * Nl2x_5^01 lam4n3 ) ) 0 ) ( = ( + ( * ( - 1 ) lam4n0 ) ( * UndefCntr2_y_6^0 lam4n2 ) ( * Nl2y_6^01 lam4n3 ) ) 0 ) ( = ( + ( * 1 lam4n1 ) ( * UndefCntr2_undef75 lam4n2 ) ) 0 ) ) ( and ( >= lam5n0 0 ) ( >= lam5n2 0 ) ( >= lam5n3 0 ) ( > ( + ( * 1 lam5n0 ) ( * UndefCntr2_CT lam5n2 ) ( * Nl2CT1 lam5n3 ) ( - 1 Nl2CT1 ) ) 0 ) ( = ( + ( * UndefCntr2___disjvr_1^0 lam5n2 ) ( * Nl2__disjvr_1^01 lam5n3 ) ( - ( + 0 Nl2__disjvr_1^01 ) ) ) 0 ) ( = ( + ( * UndefCntr2___disjvr_2^0 lam5n2 ) ( * Nl2__disjvr_2^01 lam5n3 ) ( - ( + 0 Nl2__disjvr_2^01 ) ) ) 0 ) ( = ( + ( * 1 lam5n0 ) ( * UndefCntr2_x_5^0 lam5n2 ) ( * Nl2x_5^01 lam5n3 ) ( - ( + 0 Nl2x_5^01 ) ) ) 0 ) ( = ( + ( * ( - 1 ) lam5n0 ) ( * UndefCntr2_y_6^0 lam5n2 ) ( * Nl2y_6^01 lam5n3 ) ( - ( + 0 Nl2y_6^01 ) ) ) 0 ) ( = ( + ( * 1 lam5n1 ) ( * UndefCntr2_undef75 lam5n2 ) ) 0 ) ) ))
(assert ( or ( and ( >= lam6n0 0 ) ( >= lam6n2 0 ) ( >= lam6n3 0 ) ( > ( + ( * 1 lam6n0 ) ( * UndefCntr3_CT lam6n2 ) ( * Nl2CT1 lam6n3 ) ( - 1 ) ) 0 ) ( = ( + ( * UndefCntr3___disjvr_1^0 lam6n2 ) ( * Nl2__disjvr_1^01 lam6n3 ) ) 0 ) ( = ( + ( * 1 lam6n1 ) ( * UndefCntr3___disjvr_2^0 lam6n2 ) ( * Nl2__disjvr_2^01 lam6n3 ) ) 0 ) ( = ( + ( * 1 lam6n0 ) ( * UndefCntr3_x_5^0 lam6n2 ) ( * Nl2x_5^01 lam6n3 ) ) 0 ) ( = ( + ( * ( - 1 ) lam6n0 ) ( * UndefCntr3_y_6^0 lam6n2 ) ( * Nl2y_6^01 lam6n3 ) ) 0 ) ( = ( + ( * ( - 1 ) lam6n1 ) ( * UndefCntr3_undef95 lam6n2 ) ) 0 ) ) ( and ( >= lam7n0 0 ) ( >= lam7n2 0 ) ( >= lam7n3 0 ) ( > ( + ( * 1 lam7n0 ) ( * UndefCntr3_CT lam7n2 ) ( * Nl2CT1 lam7n3 ) ( - 1 ( + ( + Nl2CT1 ( * Nl2__disjvr_2^01 0 ) ) ( * Nl2x_5^01 1 ) ) ) ) 0 ) ( = ( + ( * UndefCntr3___disjvr_1^0 lam7n2 ) ( * Nl2__disjvr_1^01 lam7n3 ) ( - ( + 0 Nl2__disjvr_1^01 ) ) ) 0 ) ( = ( + ( * 1 lam7n1 ) ( * UndefCntr3___disjvr_2^0 lam7n2 ) ( * Nl2__disjvr_2^01 lam7n3 ) ) 0 ) ( = ( + ( * 1 lam7n0 ) ( * UndefCntr3_x_5^0 lam7n2 ) ( * Nl2x_5^01 lam7n3 ) ( - ( + 0 ( * Nl2x_5^01 1 ) ) ) ) 0 ) ( = ( + ( * ( - 1 ) lam7n0 ) ( * UndefCntr3_y_6^0 lam7n2 ) ( * Nl2y_6^01 lam7n3 ) ( - ( + 0 Nl2y_6^01 ) ) ) 0 ) ( = ( + ( * ( - 1 ) lam7n1 ) ( * UndefCntr3_undef95 lam7n2 ) ( - ( + 0 ( * Nl2__disjvr_2^01 1 ) ) ) ) 0 ) ) ))
(assert ( <= ( + Nl2CT1 ( * Nl2__disjvr_1^01 FV___disjvr_1^0_4 ) ( * Nl2__disjvr_2^01 FV___disjvr_2^0_4 ) ( * Nl2x_5^01 FV_x_5^0_4 ) ( * Nl2y_6^01 FV_y_6^0_4 ) ) 0 ))
(assert ( or ( not ( = UndefCntr0___disjvr_1^0 0 ) ) ( not ( = UndefCntr0___disjvr_2^0 0 ) ) ( not ( = UndefCntr0_x_5^0 0 ) ) ( not ( = UndefCntr0_y_6^0 0 ) ) ( not ( = UndefCntr0_undef33 0 ) ) ( = UndefCntr0_CT 0 ) ))
(assert ( or ( and ( = UndefCntr0___disjvr_1^0 0 ) ( = UndefCntr0___disjvr_2^0 0 ) ( = UndefCntr0_x_5^0 0 ) ( = UndefCntr0_y_6^0 0 ) ) ( not ( = UndefCntr0_undef33 0 ) ) ))
(assert ( or ( not ( = UndefCntr1___disjvr_1^0 0 ) ) ( not ( = UndefCntr1___disjvr_2^0 0 ) ) ( not ( = UndefCntr1_x_5^0 0 ) ) ( not ( = UndefCntr1_y_6^0 0 ) ) ( not ( = UndefCntr1_undef52 0 ) ) ( = UndefCntr1_CT 0 ) ))
(assert ( or ( and ( = UndefCntr1___disjvr_1^0 0 ) ( = UndefCntr1___disjvr_2^0 0 ) ( = UndefCntr1_x_5^0 0 ) ( = UndefCntr1_y_6^0 0 ) ) ( not ( = UndefCntr1_undef52 0 ) ) ))
(assert ( or ( not ( = UndefCntr2___disjvr_1^0 0 ) ) ( not ( = UndefCntr2___disjvr_2^0 0 ) ) ( not ( = UndefCntr2_x_5^0 0 ) ) ( not ( = UndefCntr2_y_6^0 0 ) ) ( not ( = UndefCntr2_undef75 0 ) ) ( = UndefCntr2_CT 0 ) ))
(assert ( or ( and ( = UndefCntr2___disjvr_1^0 0 ) ( = UndefCntr2___disjvr_2^0 0 ) ( = UndefCntr2_x_5^0 0 ) ( = UndefCntr2_y_6^0 0 ) ) ( not ( = UndefCntr2_undef75 0 ) ) ))
(assert ( or ( not ( = UndefCntr3___disjvr_1^0 0 ) ) ( not ( = UndefCntr3___disjvr_2^0 0 ) ) ( not ( = UndefCntr3_x_5^0 0 ) ) ( not ( = UndefCntr3_y_6^0 0 ) ) ( not ( = UndefCntr3_undef95 0 ) ) ( = UndefCntr3_CT 0 ) ))
(assert ( or ( and ( = UndefCntr3___disjvr_1^0 0 ) ( = UndefCntr3___disjvr_2^0 0 ) ( = UndefCntr3_x_5^0 0 ) ( = UndefCntr3_y_6^0 0 ) ) ( not ( = UndefCntr3_undef95 0 ) ) ))
(assert ( or ( and ( >= lam9n1 0 ) ( > ( + ( * Nl2CT1 lam9n1 ) ( - 1 ) ) 0 ) ( = ( * Nl2__disjvr_1^01 lam9n1 ) 0 ) ( = ( * Nl2__disjvr_2^01 lam9n1 ) 0 ) ( = ( + ( * 1 lam9n0 ) ( * Nl2x_5^01 lam9n1 ) ) 0 ) ( = ( + ( * ( - 1 ) lam9n0 ) ( * Nl2y_6^01 lam9n1 ) ) 0 ) ) ( and ( and ( >= lam10n1 0 ) ( > ( + ( * Nl2CT1 lam10n1 ) ( - 1 ( + ( + 0 0 ) ( * ( - 1 ) UndefDef1undef52_CT ) ) ) ) 0 ) ( = ( + ( * Nl2__disjvr_1^01 lam10n1 ) ( - ( + 1 ( * UndefDef1undef52___disjvr_1^0 ( - 1 ) ) ) ) ) 0 ) ( = ( + ( * Nl2__disjvr_2^01 lam10n1 ) ( - ( * UndefDef1undef52___disjvr_2^0 ( - 1 ) ) ) ) 0 ) ( = ( + ( * 1 lam10n0 ) ( * Nl2x_5^01 lam10n1 ) ( - ( * UndefDef1undef52_x_5^0 ( - 1 ) ) ) ) 0 ) ( = ( + ( * ( - 1 ) lam10n0 ) ( * Nl2y_6^01 lam10n1 ) ( - ( * UndefDef1undef52_y_6^0 ( - 1 ) ) ) ) 0 ) ) ( and ( >= lam11n1 0 ) ( > ( + ( * Nl2CT1 lam11n1 ) ( - 1 ( - ( + ( + 0 0 ) ( * ( - 1 ) UndefDef1undef52_CT ) ) ) ) ) 0 ) ( = ( + ( * Nl2__disjvr_1^01 lam11n1 ) ( - ( - ( + 1 ( * UndefDef1undef52___disjvr_1^0 ( - 1 ) ) ) ) ) ) 0 ) ( = ( + ( * Nl2__disjvr_2^01 lam11n1 ) ( - ( - ( * UndefDef1undef52___disjvr_2^0 ( - 1 ) ) ) ) ) 0 ) ( = ( + ( * 1 lam11n0 ) ( * Nl2x_5^01 lam11n1 ) ( - ( - ( * UndefDef1undef52_x_5^0 ( - 1 ) ) ) ) ) 0 ) ( = ( + ( * ( - 1 ) lam11n0 ) ( * Nl2y_6^01 lam11n1 ) ( - ( - ( * UndefDef1undef52_y_6^0 ( - 1 ) ) ) ) ) 0 ) ) ( or ( = UndefCntr1_undef52 0 ) ( and ( >= lam12n1 0 ) ( > ( + ( * Nl2CT1 lam12n1 ) ( - 1 ( + ( + ( + ( + ( + UndefCntr1_CT 0 ) 0 ) 0 ) 0 ) ( * UndefCntr1_undef52 UndefDef1undef52_CT ) ) ) ) 0 ) ( = ( + ( * Nl2__disjvr_1^01 lam12n1 ) ( - ( + UndefCntr1___disjvr_1^0 ( * UndefDef1undef52___disjvr_1^0 UndefCntr1_undef52 ) ) ) ) 0 ) ( = ( + ( * Nl2__disjvr_2^01 lam12n1 ) ( - ( + UndefCntr1___disjvr_2^0 ( * UndefDef1undef52___disjvr_2^0 UndefCntr1_undef52 ) ) ) ) 0 ) ( = ( + ( * 1 lam12n0 ) ( * Nl2x_5^01 lam12n1 ) ( - ( + UndefCntr1_x_5^0 ( * UndefDef1undef52_x_5^0 UndefCntr1_undef52 ) ) ) ) 0 ) ( = ( + ( * ( - 1 ) lam12n0 ) ( * Nl2y_6^01 lam12n1 ) ( - ( + UndefCntr1_y_6^0 ( * UndefDef1undef52_y_6^0 UndefCntr1_undef52 ) ) ) ) 0 ) ) ) ) ))
(assert ( or ( and ( >= lam13n0 0 ) ( >= lam13n1 0 ) ( > ( + ( * 1 lam13n0 ) ( * Nl2CT1 lam13n1 ) ( - 1 ) ) 0 ) ( = ( * Nl2__disjvr_1^01 lam13n1 ) 0 ) ( = ( * Nl2__disjvr_2^01 lam13n1 ) 0 ) ( = ( + ( * 1 lam13n0 ) ( * Nl2x_5^01 lam13n1 ) ) 0 ) ( = ( + ( * ( - 1 ) lam13n0 ) ( * Nl2y_6^01 lam13n1 ) ) 0 ) ) ( and ( and ( >= lam14n0 0 ) ( >= lam14n1 0 ) ( > ( + ( * 1 lam14n0 ) ( * Nl2CT1 lam14n1 ) ( - 1 ( + ( + 0 0 ) ( * ( - 1 ) UndefDef3undef95_CT ) ) ) ) 0 ) ( = ( + ( * Nl2__disjvr_1^01 lam14n1 ) ( - ( * UndefDef3undef95___disjvr_1^0 ( - 1 ) ) ) ) 0 ) ( = ( + ( * Nl2__disjvr_2^01 lam14n1 ) ( - ( + 1 ( * UndefDef3undef95___disjvr_2^0 ( - 1 ) ) ) ) ) 0 ) ( = ( + ( * 1 lam14n0 ) ( * Nl2x_5^01 lam14n1 ) ( - ( * UndefDef3undef95_x_5^0 ( - 1 ) ) ) ) 0 ) ( = ( + ( * ( - 1 ) lam14n0 ) ( * Nl2y_6^01 lam14n1 ) ( - ( * UndefDef3undef95_y_6^0 ( - 1 ) ) ) ) 0 ) ) ( and ( >= lam15n0 0 ) ( >= lam15n1 0 ) ( > ( + ( * 1 lam15n0 ) ( * Nl2CT1 lam15n1 ) ( - 1 ( - ( + ( + 0 0 ) ( * ( - 1 ) UndefDef3undef95_CT ) ) ) ) ) 0 ) ( = ( + ( * Nl2__disjvr_1^01 lam15n1 ) ( - ( - ( * UndefDef3undef95___disjvr_1^0 ( - 1 ) ) ) ) ) 0 ) ( = ( + ( * Nl2__disjvr_2^01 lam15n1 ) ( - ( - ( + 1 ( * UndefDef3undef95___disjvr_2^0 ( - 1 ) ) ) ) ) ) 0 ) ( = ( + ( * 1 lam15n0 ) ( * Nl2x_5^01 lam15n1 ) ( - ( - ( * UndefDef3undef95_x_5^0 ( - 1 ) ) ) ) ) 0 ) ( = ( + ( * ( - 1 ) lam15n0 ) ( * Nl2y_6^01 lam15n1 ) ( - ( - ( * UndefDef3undef95_y_6^0 ( - 1 ) ) ) ) ) 0 ) ) ( or ( = UndefCntr3_undef95 0 ) ( and ( >= lam16n0 0 ) ( >= lam16n1 0 ) ( > ( + ( * 1 lam16n0 ) ( * Nl2CT1 lam16n1 ) ( - 1 ( + ( + ( + ( + ( + UndefCntr3_CT 0 ) 0 ) 0 ) 0 ) ( * UndefCntr3_undef95 UndefDef3undef95_CT ) ) ) ) 0 ) ( = ( + ( * Nl2__disjvr_1^01 lam16n1 ) ( - ( + UndefCntr3___disjvr_1^0 ( * UndefDef3undef95___disjvr_1^0 UndefCntr3_undef95 ) ) ) ) 0 ) ( = ( + ( * Nl2__disjvr_2^01 lam16n1 ) ( - ( + UndefCntr3___disjvr_2^0 ( * UndefDef3undef95___disjvr_2^0 UndefCntr3_undef95 ) ) ) ) 0 ) ( = ( + ( * 1 lam16n0 ) ( * Nl2x_5^01 lam16n1 ) ( - ( + UndefCntr3_x_5^0 ( * UndefDef3undef95_x_5^0 UndefCntr3_undef95 ) ) ) ) 0 ) ( = ( + ( * ( - 1 ) lam16n0 ) ( * Nl2y_6^01 lam16n1 ) ( - ( + UndefCntr3_y_6^0 ( * UndefDef3undef95_y_6^0 UndefCntr3_undef95 ) ) ) ) 0 ) ) ) ) ))
(assert ( or ( = UndefCntr0_undef33 0 ) ( and ( and ( = UndefCntr0___disjvr_1^0 0 ) ( = UndefCntr0___disjvr_2^0 0 ) ( = UndefCntr0_x_5^0 0 ) ( = UndefCntr0_y_6^0 0 ) ) ( or ( and ( = FV_undef33_0 0 ) ( <= ( + UndefCntr0_CT ( * UndefCntr0_undef33 FV_undef33_0 ) ( * UndefCntr0___disjvr_1^0 FV___disjvr_1^0_0 ) ( * UndefCntr0___disjvr_2^0 FV___disjvr_2^0_0 ) ( * UndefCntr0_x_5^0 FV_x_5^0_0 ) ( * UndefCntr0_y_6^0 FV_y_6^0_0 ) ) 0 ) ) ( and ( = FV_undef33_0 0 ) ( <= ( + UndefCntr0_CT ( * UndefCntr0_undef33 FV_undef33_0 ) ( * UndefCntr0___disjvr_1^0 FV___disjvr_1^0_0 ) ( * UndefCntr0___disjvr_2^0 FV___disjvr_2^0_0 ) ( * UndefCntr0_x_5^0 FV_x_5^0_0 ) ( * UndefCntr0_y_6^0 FV_y_6^0_0 ) ) 0 ) ) ) ) ))
(assert ( or ( = UndefCntr2_undef75 0 ) ( and ( and ( = UndefCntr2___disjvr_1^0 0 ) ( = UndefCntr2___disjvr_2^0 0 ) ( = UndefCntr2_x_5^0 0 ) ( = UndefCntr2_y_6^0 0 ) ) ( or ( and ( = FV_undef75_2 0 ) ( <= ( + UndefCntr2_CT ( * UndefCntr2_undef75 FV_undef75_2 ) ( * UndefCntr2___disjvr_1^0 FV___disjvr_1^0_2 ) ( * UndefCntr2___disjvr_2^0 FV___disjvr_2^0_2 ) ( * UndefCntr2_x_5^0 FV_x_5^0_2 ) ( * UndefCntr2_y_6^0 FV_y_6^0_2 ) ) 0 ) ) ( and ( = FV_undef75_2 0 ) ( <= ( + UndefCntr2_CT ( * UndefCntr2_undef75 FV_undef75_2 ) ( * UndefCntr2___disjvr_1^0 FV___disjvr_1^0_2 ) ( * UndefCntr2___disjvr_2^0 FV___disjvr_2^0_2 ) ( * UndefCntr2_x_5^0 FV_x_5^0_2 ) ( * UndefCntr2_y_6^0 FV_y_6^0_2 ) ) 0 ) ) ) ) ))
(assert ( and ( >= lam17n0 0 ) ( >= lam17n1 0 ) ( > ( + ( * 1 lam17n0 ) ( * Nl2CT1 lam17n1 ) ( - 1 ) ) 0 ) ( = ( * Nl2__disjvr_1^01 lam17n1 ) 0 ) ( = ( * Nl2__disjvr_2^01 lam17n1 ) 0 ) ( = ( + ( * ( - 1 ) lam17n0 ) ( * Nl2x_5^01 lam17n1 ) ) 0 ) ( = ( + ( * 1 lam17n0 ) ( * Nl2y_6^01 lam17n1 ) ) 0 ) ))
(assert ( and ( <= ( + Nl2CT1 ( * Nl2x_5^01 FV_x_5^0_5 ) ( * Nl2y_6^01 FV_y_6^0_5 ) ( * Nl2__disjvr_1^01 FV___disjvr_1^0_5 ) ( * Nl2__disjvr_2^01 FV___disjvr_2^0_5 ) ) 0 ) ( or ( and ( = ( + FV_x_5^0_5 ( * ( - 1 ) FV_y_6^0_5 ) ) 0 ) ( = FV_undef33_5 0 ) ) ( and ( = ( + FV___disjvr_1^0_5 ( * ( - 1 ) FV_undef52_5 ) ) 0 ) ( = ( + FV_x_5^0_5 ( * ( - 1 ) FV_y_6^0_5 ) ) 0 ) ) ( and ( <= ( + 1 FV_x_5^0_5 ( * ( - 1 ) FV_y_6^0_5 ) ) 0 ) ( = FV_undef75_5 0 ) ) ( and ( <= ( + 1 FV_x_5^0_5 ( * ( - 1 ) FV_y_6^0_5 ) ) 0 ) ( = ( + FV___disjvr_2^0_5 ( * ( - 1 ) FV_undef95_5 ) ) 0 ) ) ) ))
(check-sat)
(exit)
